; cancer_lin with feature 3 >= 1.25, with interval arithmetic
(set-option :produce-models true)
(set-logic AUFLIRA)
; ### Variable declarations ###
(declare-const i_0_0 Real)
(declare-const i_0_1 Real)
(declare-const i_0_2 Real)
(declare-const i_0_3 Real)
(declare-const i_0_4 Real)
(declare-const i_0_5 Real)
(declare-const i_0_6 Real)
(declare-const i_0_7 Real)
(declare-const i_0_8 Real)
(declare-const i_0_9 Real)
(declare-const i_0_10 Real)
(declare-const i_0_11 Real)
(declare-const i_0_12 Real)
(declare-const i_0_13 Real)
(declare-const i_0_14 Real)
(declare-const i_0_15 Real)
(declare-const i_0_16 Real)
(declare-const i_0_17 Real)
(declare-const i_0_18 Real)
(declare-const i_0_19 Real)
(declare-const i_0_20 Real)
(declare-const i_0_21 Real)
(declare-const i_0_22 Real)
(declare-const i_0_23 Real)
(declare-const i_0_24 Real)
(declare-const i_0_25 Real)
(declare-const i_0_26 Real)
(declare-const i_0_27 Real)
(declare-const i_0_28 Real)
(declare-const i_0_29 Real)
(declare-const x_0_0 Real)
(declare-const x_0_1 Real)
(declare-const x_0_2 Real)
(declare-const x_0_3 Real)
(declare-const x_0_4 Real)
(declare-const x_0_5 Real)
(declare-const x_0_6 Real)
(declare-const x_0_7 Real)
(declare-const x_0_8 Real)
(declare-const x_0_9 Real)
(declare-const x_0_10 Real)
(declare-const x_0_11 Real)
(declare-const x_0_12 Real)
(declare-const x_0_13 Real)
(declare-const x_0_14 Real)
(declare-const x_0_15 Real)
(declare-const d_16_0 Int)
(declare-const d_16_1 Int)
(declare-const d_16_2 Int)
(declare-const d_16_3 Int)
(declare-const d_16_4 Int)
(declare-const d_16_5 Int)
(declare-const d_16_6 Int)
(declare-const d_16_7 Int)
(declare-const d_16_8 Int)
(declare-const d_16_9 Int)
(declare-const d_16_10 Int)
(declare-const d_16_11 Int)
(declare-const d_16_12 Int)
(declare-const d_16_13 Int)
(declare-const d_16_14 Int)
(declare-const d_16_15 Int)
(declare-const o_16_0 Real)
(declare-const o_16_1 Real)
(declare-const o_16_2 Real)
(declare-const o_16_3 Real)
(declare-const o_16_4 Real)
(declare-const o_16_5 Real)
(declare-const o_16_6 Real)
(declare-const o_16_7 Real)
(declare-const o_16_8 Real)
(declare-const o_16_9 Real)
(declare-const o_16_10 Real)
(declare-const o_16_11 Real)
(declare-const o_16_12 Real)
(declare-const o_16_13 Real)
(declare-const o_16_14 Real)
(declare-const o_16_15 Real)
(declare-const x_1_0 Real)
(declare-const x_1_1 Real)
(declare-const x_1_2 Real)
(declare-const x_1_3 Real)
(declare-const x_1_4 Real)
(declare-const x_1_5 Real)
(declare-const x_1_6 Real)
(declare-const x_1_7 Real)
(declare-const d_8_0 Int)
(declare-const d_8_1 Int)
(declare-const d_8_2 Int)
(declare-const d_8_3 Int)
(declare-const d_8_4 Int)
(declare-const d_8_5 Int)
(declare-const d_8_6 Int)
(declare-const d_8_7 Int)
(declare-const o_8_0 Real)
(declare-const o_8_1 Real)
(declare-const o_8_2 Real)
(declare-const o_8_3 Real)
(declare-const o_8_4 Real)
(declare-const o_8_5 Real)
(declare-const o_8_6 Real)
(declare-const o_8_7 Real)
(declare-const x_2_0 Real)
(declare-const x_2_1 Real)
(declare-const x_2_2 Real)
(declare-const x_2_3 Real)
(declare-const x_2_4 Real)
(declare-const x_2_5 Real)
(declare-const d_6_0 Int)
(declare-const d_6_1 Int)
(declare-const d_6_2 Int)
(declare-const d_6_3 Int)
(declare-const d_6_4 Int)
(declare-const d_6_5 Int)
(declare-const o_6_0 Real)
(declare-const o_6_1 Real)
(declare-const o_6_2 Real)
(declare-const o_6_3 Real)
(declare-const o_6_4 Real)
(declare-const o_6_5 Real)
(declare-const x_3_0 Real)
; ### Variable bounds ###
(assert (<= i_0_0 3.963628))
(assert (<= -2.019404 i_0_0))
(assert (<= i_0_1 3.528104))
(assert (<= -2.272988 i_0_1))
(assert (<= i_0_2 3.980919))
(assert (<= -1.977589 i_0_2))
(assert (<= i_0_3 1.25))
(assert (<= -1.426379 i_0_3))
(assert (<= i_0_4 3.503046))
(assert (<= -3.176344 i_0_4))
(assert (<= i_0_5 4.125777))
(assert (<= -1.664312 i_0_5))
(assert (<= i_0_6 4.366097))
(assert (<= -1.125696 i_0_6))
(assert (<= i_0_7 3.955644))
(assert (<= -1.262871 i_0_7))
(assert (<= i_0_8 4.496561))
(assert (<= -2.738225 i_0_8))
(assert (<= i_0_9 5.105021))
(assert (<= -1.865718 i_0_9))
(assert (<= i_0_10 8.697088))
(assert (<= -1.024522 i_0_10))
(assert (<= i_0_11 6.788612))
(assert (<= -1.569514 i_0_11))
(assert (<= i_0_12 9.410281))
(assert (<= -1.016081 i_0_12))
(assert (<= i_0_13 10.52718))
(assert (<= -0.6933525 i_0_13))
(assert (<= i_0_14 5.747718))
(assert (<= -1.862462 i_0_14))
(assert (<= i_0_15 6.308377))
(assert (<= -1.304206 i_0_15))
(assert (<= i_0_16 11.73186))
(assert (<= -1.012913 i_0_16))
(assert (<= i_0_17 6.984494))
(assert (<= -1.977069 i_0_17))
(assert (<= i_0_18 4.999672))
(assert (<= -1.54422 i_0_18))
(assert (<= i_0_19 10.0236))
(assert (<= -1.08005 i_0_19))
(assert (<= i_0_20 4.049783))
(assert (<= -1.70436 i_0_20))
(assert (<= i_0_21 3.938555))
(assert (<= -2.218398 i_0_21))
(assert (<= i_0_22 4.261315))
(assert (<= -1.673608 i_0_22))
(assert (<= i_0_23 5.758096))
(assert (<= -1.188201 i_0_23))
(assert (<= i_0_24 3.988374))
(assert (<= -2.711807 i_0_24))
(assert (<= i_0_25 5.270909))
(assert (<= -1.468356 i_0_25))
(assert (<= i_0_26 4.93691))
(assert (<= -1.34136 i_0_26))
(assert (<= i_0_27 2.695096))
(assert (<= -1.754014 i_0_27))
(assert (<= i_0_28 5.934052))
(assert (<= -2.128278 i_0_28))
(assert (<= i_0_29 6.968987))
(assert (<= -1.598903 i_0_29))
(assert (<= d_16_0 1.))
(assert (<= 0. d_16_0))
(assert (<= d_16_1 1.))
(assert (<= 0. d_16_1))
(assert (<= d_16_2 1.))
(assert (<= 0. d_16_2))
(assert (<= d_16_3 1.))
(assert (<= 0. d_16_3))
(assert (<= d_16_4 1.))
(assert (<= 0. d_16_4))
(assert (<= d_16_5 1.))
(assert (<= 0. d_16_5))
(assert (<= d_16_6 1.))
(assert (<= 0. d_16_6))
(assert (<= d_16_7 1.))
(assert (<= 0. d_16_7))
(assert (<= d_16_8 1.))
(assert (<= 0. d_16_8))
(assert (<= d_16_9 1.))
(assert (<= 0. d_16_9))
(assert (<= d_16_10 1.))
(assert (<= 0. d_16_10))
(assert (<= d_16_11 1.))
(assert (<= 0. d_16_11))
(assert (<= d_16_12 1.))
(assert (<= 0. d_16_12))
(assert (<= d_16_13 1.))
(assert (<= 0. d_16_13))
(assert (<= d_16_14 1.))
(assert (<= 0. d_16_14))
(assert (<= d_16_15 1.))
(assert (<= 0. d_16_15))
(assert (<= d_8_0 1.))
(assert (<= 0. d_8_0))
(assert (<= d_8_1 1.))
(assert (<= 0. d_8_1))
(assert (<= d_8_2 1.))
(assert (<= 0. d_8_2))
(assert (<= d_8_3 1.))
(assert (<= 0. d_8_3))
(assert (<= d_8_4 1.))
(assert (<= 0. d_8_4))
(assert (<= d_8_5 1.))
(assert (<= 0. d_8_5))
(assert (<= d_8_6 1.))
(assert (<= 0. d_8_6))
(assert (<= d_8_7 1.))
(assert (<= 0. d_8_7))
(assert (<= d_6_0 1.))
(assert (<= 0. d_6_0))
(assert (<= d_6_1 1.))
(assert (<= 0. d_6_1))
(assert (<= d_6_2 1.))
(assert (<= 0. d_6_2))
(assert (<= d_6_3 1.))
(assert (<= 0. d_6_3))
(assert (<= d_6_4 1.))
(assert (<= 0. d_6_4))
(assert (<= d_6_5 1.))
(assert (<= 0. d_6_5))
; ### Constraints ###
(assert (= x_0_0 (+ (* -0.14604229 i_0_0) (* 0.14167291 i_0_1) (* -0.008590415 i_0_2) (* 0.00079504383 i_0_3) (* -0.4531811 i_0_4) (* 0.23352642 i_0_5) (* 0.33708492 i_0_6) (* -0.60741657 i_0_7) (* 0.15800011 i_0_8) (* 0.1123299 i_0_9) (* -0.15707685 i_0_10) (* 0.083326764 i_0_11) (* -0.11557894 i_0_12) (* -0.46121815 i_0_13) (* -0.53104174 i_0_14) (* 0.6137402 i_0_15) (* 0.2621566 i_0_16) (* 0.4192862 i_0_17) (* 0.17101559 i_0_18) (* 0.4423604 i_0_19) (* -0.9199986 i_0_20) (* -0.031719062 i_0_21) (* -0.5951447 i_0_22) (* -0.65435046 i_0_23) (* -0.04337819 i_0_24) (* 0.56312376 i_0_25) (* -0.052128043 i_0_26) (* -0.06206211 i_0_27) (* -0.038587853 i_0_28) (* -0.05917165 i_0_29) 0.0988661)))
(assert (= x_0_1 (+ (* 0.21923889 i_0_0) (* 0.41554323 i_0_1) (* 0.6365788 i_0_2) (* 0.16031347 i_0_3) (* 0.41248783 i_0_4) (* 0.6421083 i_0_5) (* -0.15563355 i_0_6) (* 0.6896149 i_0_7) (* -0.14927214 i_0_8) (* -0.017991543 i_0_9) (* -0.368895 i_0_10) (* 0.8622449 i_0_11) (* -0.46154916 i_0_12) (* -0.49939948 i_0_13) (* -0.67369723 i_0_14) (* 0.040766485 i_0_15) (* -0.15726702 i_0_16) (* 0.65877545 i_0_17) (* -0.5166184 i_0_18) (* -0.11330677 i_0_19) (* 0.54015654 i_0_20) (* 1.1422633 i_0_21) (* 0.4176474 i_0_22) (* 0.12141414 i_0_23) (* 0.095677204 i_0_24) (* 0.30579174 i_0_25) (* 0.2651047 i_0_26) (* 0.30308336 i_0_27) (* -0.52998173 i_0_28) (* 0.014626144 i_0_29) 0.55739576)))
(assert (= x_0_2 (+ (* 0.04814384 i_0_0) (* -0.54527146 i_0_1) (* 0.31983444 i_0_2) (* 0.10969484 i_0_3) (* -0.453191 i_0_4) (* -0.13129832 i_0_5) (* 0.31855887 i_0_6) (* -0.5938525 i_0_7) (* 0.13618545 i_0_8) (* -0.38626656 i_0_9) (* -0.65819424 i_0_10) (* 0.18652287 i_0_11) (* -0.25366372 i_0_12) (* -0.86135644 i_0_13) (* -0.3770077 i_0_14) (* 0.26460525 i_0_15) (* 0.6870558 i_0_16) (* 0.5386752 i_0_17) (* 0.16273394 i_0_18) (* 0.7270824 i_0_19) (* -0.6841814 i_0_20) (* -0.3372688 i_0_21) (* -0.14739771 i_0_22) (* -0.34928346 i_0_23) (* -0.3801739 i_0_24) (* 0.26641554 i_0_25) (* -0.2895547 i_0_26) (* -0.17502414 i_0_27) (* -0.04223999 i_0_28) (* 0.07132131 i_0_29) 0.31003642)))
(assert (= x_0_3 (+ (* -0.2632211 i_0_0) (* 0.15171574 i_0_1) (* 0.033642113 i_0_2) (* 0.41373265 i_0_3) (* -0.6159942 i_0_4) (* 0.17971215 i_0_5) (* 0.21609777 i_0_6) (* -0.3507514 i_0_7) (* 0.040676326 i_0_8) (* -0.3540025 i_0_9) (* -0.6366796 i_0_10) (* -0.3608698 i_0_11) (* -0.49498174 i_0_12) (* -0.6204976 i_0_13) (* -0.93073565 i_0_14) (* 0.5546948 i_0_15) (* 0.38724363 i_0_16) (* -0.1407383 i_0_17) (* 0.4369547 i_0_18) (* 0.37582853 i_0_19) (* -1.0827504 i_0_20) (* -0.2615153 i_0_21) (* -0.74530065 i_0_22) (* -0.78069013 i_0_23) (* -0.815448 i_0_24) (* 0.34561288 i_0_25) (* 0.190481 i_0_26) (* 0.0414368 i_0_27) (* -0.46714616 i_0_28) (* -0.31113964 i_0_29) 0.10111282)))
(assert (= x_0_4 (+ (* -0.0592517 i_0_0) (* -0.27396062 i_0_1) (* -0.19255936 i_0_2) (* -0.04692519 i_0_3) (* -0.29684943 i_0_4) (* 0.21372734 i_0_5) (* 0.03349324 i_0_6) (* -0.6296622 i_0_7) (* 0.8363087 i_0_8) (* -0.31341264 i_0_9) (* -0.095720984 i_0_10) (* -0.32626832 i_0_11) (* -0.5108694 i_0_12) (* -0.9103822 i_0_13) (* -0.28306723 i_0_14) (* 0.057803676 i_0_15) (* 0.00949306 i_0_16) (* 0.44195768 i_0_17) (* 0.41057727 i_0_18) (* 0.29352784 i_0_19) (* -0.7772703 i_0_20) (* -0.5836505 i_0_21) (* -0.49470413 i_0_22) (* -0.40975145 i_0_23) (* 0.35158488 i_0_24) (* -0.070100494 i_0_25) (* -0.21108212 i_0_26) (* 0.2895581 i_0_27) (* -0.22906047 i_0_28) (* -0.20763129 i_0_29) 0.0073440806)))
(assert (= x_0_5 (+ (* -0.17343184 i_0_0) (* -0.13794139 i_0_1) (* 0.08345324 i_0_2) (* -0.3148406 i_0_3) (* 0.12095814 i_0_4) (* -0.02721905 i_0_5) (* 0.07031374 i_0_6) (* 1.0205684 i_0_7) (* -0.14487168 i_0_8) (* 0.29164416 i_0_9) (* -0.0039257254 i_0_10) (* 0.26132354 i_0_11) (* 0.30848902 i_0_12) (* 0.09586494 i_0_13) (* -0.083144486 i_0_14) (* -0.41472727 i_0_15) (* -0.21972401 i_0_16) (* -0.008126601 i_0_17) (* -0.14489485 i_0_18) (* -0.32376722 i_0_19) (* 1.5272355 i_0_20) (* 0.2525403 i_0_21) (* 0.79659986 i_0_22) (* 0.7766618 i_0_23) (* 0.50249064 i_0_24) (* 0.4248994 i_0_25) (* 0.735934 i_0_26) (* 0.41256928 i_0_27) (* -0.3351438 i_0_28) (* 0.6337672 i_0_29) 0.04398634)))
(assert (= x_0_6 (+ (* -0.46820396 i_0_0) (* -0.21140102 i_0_1) (* -0.44393384 i_0_2) (* -0.27009422 i_0_3) (* 0.52580243 i_0_4) (* -0.21351267 i_0_5) (* -0.14243494 i_0_6) (* 0.023770208 i_0_7) (* 0.3291863 i_0_8) (* 0.21698564 i_0_9) (* 0.102610365 i_0_10) (* 0.10328368 i_0_11) (* -0.18983002 i_0_12) (* -0.67316574 i_0_13) (* -0.46830603 i_0_14) (* 0.31730765 i_0_15) (* -0.13705155 i_0_16) (* -0.15286045 i_0_17) (* 0.39814436 i_0_18) (* 0.22496311 i_0_19) (* -0.0993978 i_0_20) (* 0.6685763 i_0_21) (* -0.53159386 i_0_22) (* 0.10006359 i_0_23) (* 0.46055388 i_0_24) (* 0.29148123 i_0_25) (* 0.14190519 i_0_26) (* 0.060365696 i_0_27) (* 0.060696557 i_0_28) (* -0.11600243 i_0_29) -0.0101677375)))
(assert (= x_0_7 (+ (* -0.2181115 i_0_0) (* -0.057892937 i_0_1) (* 0.0659982 i_0_2) (* 0.10628149 i_0_3) (* 0.32597762 i_0_4) (* 0.3309392 i_0_5) (* -0.32913467 i_0_6) (* 0.7033083 i_0_7) (* 0.0432725 i_0_8) (* 0.47681704 i_0_9) (* 0.5964558 i_0_10) (* 0.2823656 i_0_11) (* 0.5384831 i_0_12) (* 0.28302032 i_0_13) (* 0.013372303 i_0_14) (* -0.6527309 i_0_15) (* -0.6182816 i_0_16) (* 0.19290173 i_0_17) (* -0.49748617 i_0_18) (* -0.29357645 i_0_19) (* 1.6452641 i_0_20) (* 0.568212 i_0_21) (* 0.9746158 i_0_22) (* 0.4964466 i_0_23) (* 0.0729241 i_0_24) (* 0.32622296 i_0_25) (* 0.90396595 i_0_26) (* 0.41738328 i_0_27) (* 0.2450869 i_0_28) (* 0.19609326 i_0_29) 0.0574423)))
(assert (= x_0_8 (+ (* 0.41662532 i_0_0) (* 0.4258086 i_0_1) (* 0.28126857 i_0_2) (* -0.2696702 i_0_3) (* 0.2671269 i_0_4) (* 0.3073387 i_0_5) (* 0.03892828 i_0_6) (* 0.6503768 i_0_7) (* 0.036729198 i_0_8) (* -0.38646418 i_0_9) (* 0.74150455 i_0_10) (* -0.17006639 i_0_11) (* 0.45378718 i_0_12) (* 0.4043678 i_0_13) (* 0.3724085 i_0_14) (* -0.28360602 i_0_15) (* -0.009509923 i_0_16) (* 0.1510851 i_0_17) (* -0.16401292 i_0_18) (* -0.0010071136 i_0_19) (* 0.91953856 i_0_20) (* 0.7515085 i_0_21) (* 0.5709202 i_0_22) (* 0.61915225 i_0_23) (* 0.07160895 i_0_24) (* 0.21075933 i_0_25) (* 0.7314457 i_0_26) (* 0.3387975 i_0_27) (* 0.9227454 i_0_28) (* -0.28337207 i_0_29) 0.1844964)))
(assert (= x_0_9 (+ (* 0.5098687 i_0_0) (* -0.79615366 i_0_1) (* 0.58477014 i_0_2) (* 0.81307226 i_0_3) (* 0.14552788 i_0_4) (* 0.083192214 i_0_5) (* -0.32688612 i_0_6) (* -0.5774043 i_0_7) (* 0.5137713 i_0_8) (* -0.15337175 i_0_9) (* -0.113265246 i_0_10) (* 0.19641548 i_0_11) (* -0.25093704 i_0_12) (* -1.1153363 i_0_13) (* 0.28467312 i_0_14) (* -0.39099 i_0_15) (* -0.37820786 i_0_16) (* -0.3054091 i_0_17) (* 0.35192132 i_0_18) (* 0.14429286 i_0_19) (* -0.15260342 i_0_20) (* -0.16372414 i_0_21) (* -0.3414119 i_0_22) (* -0.062182557 i_0_23) (* 0.017967174 i_0_24) (* -0.61081094 i_0_25) (* -0.78895587 i_0_26) (* -0.27648604 i_0_27) (* -0.2970407 i_0_28) (* -0.16098352 i_0_29) 0.19998829)))
(assert (= x_0_10 (+ (* 0.23987995 i_0_0) (* 0.016089011 i_0_1) (* 0.10911701 i_0_2) (* -0.18927626 i_0_3) (* -0.4860541 i_0_4) (* -0.23542643 i_0_5) (* 0.2223785 i_0_6) (* -0.5837128 i_0_7) (* 0.3799972 i_0_8) (* 0.31557497 i_0_9) (* -0.2560652 i_0_10) (* -0.110525936 i_0_11) (* 0.19543608 i_0_12) (* -0.6499079 i_0_13) (* -0.25803244 i_0_14) (* 0.7758178 i_0_15) (* 0.6230723 i_0_16) (* 0.072697915 i_0_17) (* 0.050741903 i_0_18) (* 0.2862839 i_0_19) (* -0.7548768 i_0_20) (* 0.05858817 i_0_21) (* -0.76424426 i_0_22) (* -0.30088967 i_0_23) (* -0.14076835 i_0_24) (* 0.36243722 i_0_25) (* -0.38461575 i_0_26) (* -0.1578804 i_0_27) (* -0.38585195 i_0_28) (* 0.30756563 i_0_29) -0.04427183)))
(assert (= x_0_11 (+ (* -0.7899112 i_0_0) (* -0.485536 i_0_1) (* -0.76753396 i_0_2) (* -0.25122565 i_0_3) (* -0.25719452 i_0_4) (* -0.013919243 i_0_5) (* 0.24828206 i_0_6) (* -1.1940165 i_0_7) (* 0.20345183 i_0_8) (* 0.7264061 i_0_9) (* -0.1491936 i_0_10) (* -1.0008779 i_0_11) (* -0.20669875 i_0_12) (* -0.39037052 i_0_13) (* -0.019684594 i_0_14) (* 0.66939884 i_0_15) (* 0.09001346 i_0_16) (* 0.44398487 i_0_17) (* 0.5415693 i_0_18) (* 0.47205803 i_0_19) (* -0.99436045 i_0_20) (* 0.01390404 i_0_21) (* -1.2497953 i_0_22) (* -0.7552262 i_0_23) (* 0.10143723 i_0_24) (* 0.32292014 i_0_25) (* 0.060995277 i_0_26) (* -0.23525591 i_0_27) (* 0.09064608 i_0_28) (* 0.24107493 i_0_29) 0.35076937)))
(assert (= x_0_12 (+ (* 0.07419501 i_0_0) (* 0.25041324 i_0_1) (* 0.22261938 i_0_2) (* 0.056902938 i_0_3) (* 0.677719 i_0_4) (* -0.1031212 i_0_5) (* 0.45831853 i_0_6) (* 0.94779426 i_0_7) (* 0.23272742 i_0_8) (* -0.1997131 i_0_9) (* 0.60439 i_0_10) (* 0.098905824 i_0_11) (* 0.07512371 i_0_12) (* 0.090447165 i_0_13) (* 0.17912926 i_0_14) (* 0.06234756 i_0_15) (* -0.26451263 i_0_16) (* 0.20878181 i_0_17) (* 0.12769203 i_0_18) (* -0.4022649 i_0_19) (* 1.3697258 i_0_20) (* 1.0300545 i_0_21) (* 1.0657307 i_0_22) (* 0.32965642 i_0_23) (* -0.11933904 i_0_24) (* 0.15208529 i_0_25) (* 0.6304291 i_0_26) (* 0.64622504 i_0_27) (* 0.6749241 i_0_28) (* -0.07778162 i_0_29) 0.10998293)))
(assert (= x_0_13 (+ (* 0.45330146 i_0_0) (* 0.29148498 i_0_1) (* 0.4987196 i_0_2) (* 0.18195692 i_0_3) (* 0.25961345 i_0_4) (* 0.38250062 i_0_5) (* 0.17443608 i_0_6) (* 1.0216756 i_0_7) (* 0.0046463837 i_0_8) (* -0.3639275 i_0_9) (* 0.73627174 i_0_10) (* 0.1729387 i_0_11) (* 0.33909163 i_0_12) (* 0.56360394 i_0_13) (* 0.0880308 i_0_14) (* -0.21914895 i_0_15) (* 0.14545916 i_0_16) (* 0.76835144 i_0_17) (* 0.17198108 i_0_18) (* -0.13323496 i_0_19) (* 0.7845908 i_0_20) (* 0.9148252 i_0_21) (* 0.5343911 i_0_22) (* 0.44433093 i_0_23) (* -0.03483304 i_0_24) (* 0.35128143 i_0_25) (* 0.75114185 i_0_26) (* 0.40875545 i_0_27) (* 0.5734241 i_0_28) (* -0.17893003 i_0_29) 0.097726725)))
(assert (= x_0_14 (+ (* -0.122693054 i_0_0) (* -0.91368246 i_0_1) (* 0.34466973 i_0_2) (* 0.25934753 i_0_3) (* 0.73692006 i_0_4) (* 0.21581966 i_0_5) (* -0.21820994 i_0_6) (* -0.44536096 i_0_7) (* 0.42900285 i_0_8) (* -0.2378018 i_0_9) (* -0.7692861 i_0_10) (* -0.47095704 i_0_11) (* -0.60369015 i_0_12) (* -0.4836031 i_0_13) (* 0.008692538 i_0_14) (* -0.023561137 i_0_15) (* 0.14066212 i_0_16) (* 0.19332087 i_0_17) (* 0.034926865 i_0_18) (* 0.72846144 i_0_19) (* -1.0729406 i_0_20) (* -0.12276101 i_0_21) (* -0.63574797 i_0_22) (* -0.14850353 i_0_23) (* 0.40010545 i_0_24) (* 0.002696098 i_0_25) (* -0.79881287 i_0_26) (* -0.19614324 i_0_27) (* 0.082407296 i_0_28) (* -0.25064105 i_0_29) 0.3856403)))
(assert (= x_0_15 (+ (* 0.22524312 i_0_0) (* -0.07192657 i_0_1) (* 0.22553506 i_0_2) (* 0.19375442 i_0_3) (* 0.01916771 i_0_4) (* 0.006582155 i_0_5) (* 0.17492494 i_0_6) (* 0.19070666 i_0_7) (* 0.22948495 i_0_8) (* 0.2901887 i_0_9) (* 0.36323747 i_0_10) (* 0.68876684 i_0_11) (* 0.19663349 i_0_12) (* 0.4841618 i_0_13) (* -0.09044681 i_0_14) (* 0.07395858 i_0_15) (* -0.21082999 i_0_16) (* 0.5567986 i_0_17) (* -0.10122138 i_0_18) (* -0.14818017 i_0_19) (* -0.05673186 i_0_20) (* 0.08583396 i_0_21) (* -0.20211038 i_0_22) (* -0.16601525 i_0_23) (* -0.2567391 i_0_24) (* 0.048229333 i_0_25) (* 0.028096052 i_0_26) (* 0.012517205 i_0_27) (* 0.47456646 i_0_28) (* 0.015599394 i_0_29) -0.25462544)))
(assert (<= 0 o_16_0))
(assert (<= x_0_0 o_16_0))
(assert (<= (+ x_0_0 (- (* 31.587314265381956 d_16_0))) 0))
(assert (<= 0 (+ x_0_0 31.587314265381956 (- (* 31.587314265381956 d_16_0)))))
(assert (<= o_16_0 (+ x_0_0 31.587314265381956 (- (* 31.587314265381956 d_16_0)))))
(assert (<= o_16_0 (* 31.587314265381956 d_16_0)))
(assert (<= 0 o_16_1))
(assert (<= x_0_1 o_16_1))
(assert (<= (+ x_0_1 (- (* 41.81987305913808 d_16_1))) 0))
(assert (<= 0 (+ x_0_1 41.81987305913808 (- (* 41.81987305913808 d_16_1)))))
(assert (<= o_16_1 (+ x_0_1 41.81987305913808 (- (* 41.81987305913808 d_16_1)))))
(assert (<= o_16_1 (* 41.81987305913808 d_16_1)))
(assert (<= 0 o_16_2))
(assert (<= x_0_2 o_16_2))
(assert (<= (+ x_0_2 (- (* 43.374849812058606 d_16_2))) 0))
(assert (<= 0 (+ x_0_2 43.374849812058606 (- (* 43.374849812058606 d_16_2)))))
(assert (<= o_16_2 (+ x_0_2 43.374849812058606 (- (* 43.374849812058606 d_16_2)))))
(assert (<= o_16_2 (* 43.374849812058606 d_16_2)))
(assert (<= 0 o_16_3))
(assert (<= x_0_3 o_16_3))
(assert (<= (+ x_0_3 (- (* 57.770481021201796 d_16_3))) 0))
(assert (<= 0 (+ x_0_3 57.770481021201796 (- (* 57.770481021201796 d_16_3)))))
(assert (<= o_16_3 (+ x_0_3 57.770481021201796 (- (* 57.770481021201796 d_16_3)))))
(assert (<= o_16_3 (* 57.770481021201796 d_16_3)))
(assert (<= 0 o_16_4))
(assert (<= x_0_4 o_16_4))
(assert (<= (+ x_0_4 (- (* 46.401820063586506 d_16_4))) 0))
(assert (<= 0 (+ x_0_4 46.401820063586506 (- (* 46.401820063586506 d_16_4)))))
(assert (<= o_16_4 (+ x_0_4 46.401820063586506 (- (* 46.401820063586506 d_16_4)))))
(assert (<= o_16_4 (* 46.401820063586506 d_16_4)))
(assert (<= 0 o_16_5))
(assert (<= x_0_5 o_16_5))
(assert (<= (+ x_0_5 (- (* 44.550777653971444 d_16_5))) 0))
(assert (<= 0 (+ x_0_5 44.550777653971444 (- (* 44.550777653971444 d_16_5)))))
(assert (<= o_16_5 (+ x_0_5 44.550777653971444 (- (* 44.550777653971444 d_16_5)))))
(assert (<= o_16_5 (* 44.550777653971444 d_16_5)))
(assert (<= 0 o_16_6))
(assert (<= x_0_6 o_16_6))
(assert (<= (+ x_0_6 (- (* 32.185455122556505 d_16_6))) 0))
(assert (<= 0 (+ x_0_6 32.185455122556505 (- (* 32.185455122556505 d_16_6)))))
(assert (<= o_16_6 (+ x_0_6 32.185455122556505 (- (* 32.185455122556505 d_16_6)))))
(assert (<= o_16_6 (* 32.185455122556505 d_16_6)))
(assert (<= 0 o_16_7))
(assert (<= x_0_7 o_16_7))
(assert (<= (+ x_0_7 (- (* 54.783265159658086 d_16_7))) 0))
(assert (<= 0 (+ x_0_7 54.783265159658086 (- (* 54.783265159658086 d_16_7)))))
(assert (<= o_16_7 (+ x_0_7 54.783265159658086 (- (* 54.783265159658086 d_16_7)))))
(assert (<= o_16_7 (* 54.783265159658086 d_16_7)))
(assert (<= 0 o_16_8))
(assert (<= x_0_8 o_16_8))
(assert (<= (+ x_0_8 (- (* 54.27884774097105 d_16_8))) 0))
(assert (<= 0 (+ x_0_8 54.27884774097105 (- (* 54.27884774097105 d_16_8)))))
(assert (<= o_16_8 (+ x_0_8 54.27884774097105 (- (* 54.27884774097105 d_16_8)))))
(assert (<= o_16_8 (* 54.27884774097105 d_16_8)))
(assert (<= 0 o_16_9))
(assert (<= x_0_9 o_16_9))
(assert (<= (+ x_0_9 (- (* 51.98746892806891 d_16_9))) 0))
(assert (<= 0 (+ x_0_9 51.98746892806891 (- (* 51.98746892806891 d_16_9)))))
(assert (<= o_16_9 (+ x_0_9 51.98746892806891 (- (* 51.98746892806891 d_16_9)))))
(assert (<= o_16_9 (* 51.98746892806891 d_16_9)))
(assert (<= 0 o_16_10))
(assert (<= x_0_10 o_16_10))
(assert (<= (+ x_0_10 (- (* 36.87569979124177 d_16_10))) 0))
(assert (<= 0 (+ x_0_10 36.87569979124177 (- (* 36.87569979124177 d_16_10)))))
(assert (<= o_16_10 (+ x_0_10 36.87569979124177 (- (* 36.87569979124177 d_16_10)))))
(assert (<= o_16_10 (* 36.87569979124177 d_16_10)))
(assert (<= 0 o_16_11))
(assert (<= x_0_11 o_16_11))
(assert (<= (+ x_0_11 (- (* 48.95973902913138 d_16_11))) 0))
(assert (<= 0 (+ x_0_11 48.95973902913138 (- (* 48.95973902913138 d_16_11)))))
(assert (<= o_16_11 (+ x_0_11 48.95973902913138 (- (* 48.95973902913138 d_16_11)))))
(assert (<= o_16_11 (* 48.95973902913138 d_16_11)))
(assert (<= 0 o_16_12))
(assert (<= x_0_12 o_16_12))
(assert (<= (+ x_0_12 (- (* 49.92108247488758 d_16_12))) 0))
(assert (<= 0 (+ x_0_12 49.92108247488758 (- (* 49.92108247488758 d_16_12)))))
(assert (<= o_16_12 (+ x_0_12 49.92108247488758 (- (* 49.92108247488758 d_16_12)))))
(assert (<= o_16_12 (* 49.92108247488758 d_16_12)))
(assert (<= 0 o_16_13))
(assert (<= x_0_13 o_16_13))
(assert (<= (+ x_0_13 (- (* 60.75722539933775 d_16_13))) 0))
(assert (<= 0 (+ x_0_13 60.75722539933775 (- (* 60.75722539933775 d_16_13)))))
(assert (<= o_16_13 (+ x_0_13 60.75722539933775 (- (* 60.75722539933775 d_16_13)))))
(assert (<= o_16_13 (* 60.75722539933775 d_16_13)))
(assert (<= 0 o_16_14))
(assert (<= x_0_14 o_16_14))
(assert (<= (+ x_0_14 (- (* 50.244826525668095 d_16_14))) 0))
(assert (<= 0 (+ x_0_14 50.244826525668095 (- (* 50.244826525668095 d_16_14)))))
(assert (<= o_16_14 (+ x_0_14 50.244826525668095 (- (* 50.244826525668095 d_16_14)))))
(assert (<= o_16_14 (* 50.244826525668095 d_16_14)))
(assert (<= 0 o_16_15))
(assert (<= x_0_15 o_16_15))
(assert (<= (+ x_0_15 (- (* 30.921341248427712 d_16_15))) 0))
(assert (<= 0 (+ x_0_15 30.921341248427712 (- (* 30.921341248427712 d_16_15)))))
(assert (<= o_16_15 (+ x_0_15 30.921341248427712 (- (* 30.921341248427712 d_16_15)))))
(assert (<= o_16_15 (* 30.921341248427712 d_16_15)))
(assert (= x_1_0 (+ (* 0.73533356 o_16_0) (* 0.43632886 o_16_1) (* 0.47982046 o_16_2) (* 0.72402513 o_16_3) (* 0.17678955 o_16_4) (* 0.12860754 o_16_5) (* 0.46083552 o_16_6) (* -0.18667805 o_16_7) (* -0.5025046 o_16_8) (* 1.1573647 o_16_9) (* 0.30922756 o_16_10) (* -0.05797996 o_16_11) (* -0.23563941 o_16_12) (* -0.069817744 o_16_13) (* 1.0454718 o_16_14) (* -0.23903933 o_16_15) -0.18119949)))
(assert (= x_1_1 (+ (* 0.32843086 o_16_0) (* 0.1180717 o_16_1) (* 0.62058246 o_16_2) (* 0.81268305 o_16_3) (* -0.12210163 o_16_4) (* 0.04515953 o_16_5) (* 0.575294 o_16_6) (* -0.33933073 o_16_7) (* 0.036909606 o_16_8) (* 1.0662626 o_16_9) (* 0.61963195 o_16_10) (* 0.4327826 o_16_11) (* -0.4884682 o_16_12) (* -0.05831385 o_16_13) (* 0.8030245 o_16_14) (* -0.035286948 o_16_15) -0.028356023)))
(assert (= x_1_2 (+ (* -0.1392061 o_16_0) (* 0.014319668 o_16_1) (* -0.5109184 o_16_2) (* 0.013589024 o_16_3) (* -0.00977662 o_16_4) (* 0.19898084 o_16_5) (* 0.1706273 o_16_6) (* 0.2136213 o_16_7) (* 0.6060221 o_16_8) (* 0.02608697 o_16_9) (* -0.74423236 o_16_10) (* 0.21606432 o_16_11) (* 0.8078213 o_16_12) (* 0.5773047 o_16_13) (* -0.17240295 o_16_14) (* 0.7805597 o_16_15) -0.05876851)))
(assert (= x_1_3 (+ (* -0.028647037 o_16_0) (* 0.4829841 o_16_1) (* 0.33359656 o_16_2) (* 0.19681488 o_16_3) (* 0.22168508 o_16_4) (* -0.4276923 o_16_5) (* 0.064390615 o_16_6) (* -0.56491786 o_16_7) (* 0.18221979 o_16_8) (* 0.08058366 o_16_9) (* 0.1654288 o_16_10) (* 0.52657914 o_16_11) (* -0.23826835 o_16_12) (* -0.2014086 o_16_13) (* 0.10064096 o_16_14) (* 0.28053632 o_16_15) -0.36415043)))
(assert (= x_1_4 (+ (* 0.767022 o_16_0) (* 0.07132673 o_16_1) (* 0.4301131 o_16_2) (* 0.4489031 o_16_3) (* 0.26490897 o_16_4) (* -0.27381128 o_16_5) (* -0.016097086 o_16_6) (* -0.28398874 o_16_7) (* 0.24490817 o_16_8) (* 1.1219455 o_16_9) (* 0.7810145 o_16_10) (* 0.16423532 o_16_11) (* -0.14544922 o_16_12) (* -0.08733596 o_16_13) (* 0.8477149 o_16_14) (* 0.15238057 o_16_15) -0.20948872)))
(assert (= x_1_5 (+ (* 0.36398312 o_16_0) (* 0.26747003 o_16_1) (* 0.5503237 o_16_2) (* 0.42200038 o_16_3) (* 0.4890572 o_16_4) (* -0.4568957 o_16_5) (* -0.17881697 o_16_6) (* -0.17898308 o_16_7) (* -0.40775067 o_16_8) (* 0.5471931 o_16_9) (* 0.68706423 o_16_10) (* 0.29461175 o_16_11) (* -0.6404336 o_16_12) (* 0.40467647 o_16_13) (* 0.67855525 o_16_14) (* -0.36961874 o_16_15) -0.23733231)))
(assert (= x_1_6 (+ (* 0.16210172 o_16_0) (* -0.5714945 o_16_1) (* 0.49882352 o_16_2) (* -0.210334 o_16_3) (* 0.36370242 o_16_4) (* -0.14523984 o_16_5) (* 0.15257257 o_16_6) (* 0.06793112 o_16_7) (* -0.20407346 o_16_8) (* 0.95250165 o_16_9) (* 0.5455267 o_16_10) (* -0.050790213 o_16_11) (* -0.20283827 o_16_12) (* 0.022414105 o_16_13) (* 0.8338622 o_16_14) (* -0.60565615 o_16_15) -0.42354584)))
(assert (= x_1_7 (+ (* -0.11421308 o_16_0) (* 0.6219167 o_16_1) (* 0.49681368 o_16_2) (* 0.0064532 o_16_3) (* 0.36013702 o_16_4) (* 0.6374637 o_16_5) (* 0.10711009 o_16_6) (* 1.030816 o_16_7) (* 1.2968634 o_16_8) (* -0.30169058 o_16_9) (* -0.2152226 o_16_10) (* 0.27735028 o_16_11) (* 0.80635536 o_16_12) (* 0.70938545 o_16_13) (* -0.000013417275 o_16_14) (* 0.0773243 o_16_15) 0.71781814)))
(assert (<= 0 o_8_0))
(assert (<= x_1_0 o_8_0))
(assert (<= (+ x_1_0 (- (* 317.58087444016434 d_8_0))) 0))
(assert (<= 0 (+ x_1_0 317.58087444016434 (- (* 317.58087444016434 d_8_0)))))
(assert (<= o_8_0 (+ x_1_0 317.58087444016434 (- (* 317.58087444016434 d_8_0)))))
(assert (<= o_8_0 (* 317.58087444016434 d_8_0)))
(assert (<= 0 o_8_1))
(assert (<= x_1_1 o_8_1))
(assert (<= (+ x_1_1 (- (* 299.8316707236575 d_8_1))) 0))
(assert (<= 0 (+ x_1_1 299.8316707236575 (- (* 299.8316707236575 d_8_1)))))
(assert (<= o_8_1 (+ x_1_1 299.8316707236575 (- (* 299.8316707236575 d_8_1)))))
(assert (<= o_8_1 (* 299.8316707236575 d_8_1)))
(assert (<= 0 o_8_2))
(assert (<= x_1_2 o_8_2))
(assert (<= (+ x_1_2 (- (* 230.46386912202905 d_8_2))) 0))
(assert (<= 0 (+ x_1_2 230.46386912202905 (- (* 230.46386912202905 d_8_2)))))
(assert (<= o_8_2 (+ x_1_2 230.46386912202905 (- (* 230.46386912202905 d_8_2)))))
(assert (<= o_8_2 (* 230.46386912202905 d_8_2)))
(assert (<= 0 o_8_3))
(assert (<= x_1_3 o_8_3))
(assert (<= (+ x_1_3 (- (* 183.24732885694752 d_8_3))) 0))
(assert (<= 0 (+ x_1_3 183.24732885694752 (- (* 183.24732885694752 d_8_3)))))
(assert (<= o_8_3 (+ x_1_3 183.24732885694752 (- (* 183.24732885694752 d_8_3)))))
(assert (<= o_8_3 (* 183.24732885694752 d_8_3)))
(assert (<= 0 o_8_4))
(assert (<= x_1_4 o_8_4))
(assert (<= (+ x_1_4 (- (* 270.36498536267146 d_8_4))) 0))
(assert (<= 0 (+ x_1_4 270.36498536267146 (- (* 270.36498536267146 d_8_4)))))
(assert (<= o_8_4 (+ x_1_4 270.36498536267146 (- (* 270.36498536267146 d_8_4)))))
(assert (<= o_8_4 (* 270.36498536267146 d_8_4)))
(assert (<= 0 o_8_5))
(assert (<= x_1_5 o_8_5))
(assert (<= (+ x_1_5 (- (* 305.3615087293205 d_8_5))) 0))
(assert (<= 0 (+ x_1_5 305.3615087293205 (- (* 305.3615087293205 d_8_5)))))
(assert (<= o_8_5 (+ x_1_5 305.3615087293205 (- (* 305.3615087293205 d_8_5)))))
(assert (<= o_8_5 (* 305.3615087293205 d_8_5)))
(assert (<= 0 o_8_6))
(assert (<= x_1_6 o_8_6))
(assert (<= (+ x_1_6 (- (* 242.854605450295 d_8_6))) 0))
(assert (<= 0 (+ x_1_6 242.854605450295 (- (* 242.854605450295 d_8_6)))))
(assert (<= o_8_6 (+ x_1_6 242.854605450295 (- (* 242.854605450295 d_8_6)))))
(assert (<= o_8_6 (* 242.854605450295 d_8_6)))
(assert (<= 0 o_8_7))
(assert (<= x_1_7 o_8_7))
(assert (<= (+ x_1_7 (- (* 338.40414197826345 d_8_7))) 0))
(assert (<= 0 (+ x_1_7 338.40414197826345 (- (* 338.40414197826345 d_8_7)))))
(assert (<= o_8_7 (+ x_1_7 338.40414197826345 (- (* 338.40414197826345 d_8_7)))))
(assert (<= o_8_7 (* 338.40414197826345 d_8_7)))
(assert (= x_2_0 (+ (* 0.10900613 o_8_0) (* -0.3114747 o_8_1) (* -0.08075814 o_8_2) (* -0.27445477 o_8_3) (* -0.023396904 o_8_4) (* -0.9632244 o_8_5) (* -0.15319005 o_8_6) (* 0.95651895 o_8_7) 0.13542233)))
(assert (= x_2_1 (+ (* 0.14498058 o_8_0) (* -0.16293815 o_8_1) (* 0.00016744784 o_8_2) (* -0.20038924 o_8_3) (* -0.102321416 o_8_4) (* 0.25746065 o_8_5) (* -0.6935356 o_8_6) (* -0.33867946 o_8_7) -0.06667752)))
(assert (= x_2_2 (+ (* -0.2282162 o_8_0) (* -0.25767806 o_8_1) (* 0.28627664 o_8_2) (* -0.30659735 o_8_3) (* -0.084500864 o_8_4) (* -0.49914074 o_8_5) (* -0.12290063 o_8_6) (* -0.477462 o_8_7) 0.012646804)))
(assert (= x_2_3 (+ (* 0.8909261 o_8_0) (* 0.84952253 o_8_1) (* -0.4701458 o_8_2) (* 0.36492655 o_8_3) (* 0.8123124 o_8_4) (* 0.68971384 o_8_5) (* 0.3981851 o_8_6) (* -0.37046656 o_8_7) -0.09368714)))
(assert (= x_2_4 (+ (* -0.3439377 o_8_0) (* -0.00034892192 o_8_1) (* 0.95698243 o_8_2) (* -0.388673 o_8_3) (* -0.32318422 o_8_4) (* -0.36868432 o_8_5) (* -0.09625062 o_8_6) (* 0.90215653 o_8_7) 0.58066165)))
(assert (= x_2_5 (+ (* 0.33825353 o_8_0) (* 0.12918887 o_8_1) (* 0.024619449 o_8_2) (* 0.00704341 o_8_3) (* 0.56399125 o_8_4) (* 0.7823908 o_8_5) (* -0.15849158 o_8_6) (* -0.20992088 o_8_7) -0.2845602)))
(assert (<= 0 o_6_0))
(assert (<= x_2_0 o_6_0))
(assert (<= (+ x_2_0 (- (* 841.0071900062162 d_6_0))) 0))
(assert (<= 0 (+ x_2_0 841.0071900062162 (- (* 841.0071900062162 d_6_0)))))
(assert (<= o_6_0 (+ x_2_0 841.0071900062162 (- (* 841.0071900062162 d_6_0)))))
(assert (<= o_6_0 (* 841.0071900062162 d_6_0)))
(assert (<= 0 o_6_1))
(assert (<= x_2_1 o_6_1))
(assert (<= (+ x_2_1 (- (* 447.55849784973054 d_6_1))) 0))
(assert (<= 0 (+ x_2_1 447.55849784973054 (- (* 447.55849784973054 d_6_1)))))
(assert (<= o_6_1 (+ x_2_1 447.55849784973054 (- (* 447.55849784973054 d_6_1)))))
(assert (<= o_6_1 (* 447.55849784973054 d_6_1)))
(assert (<= 0 o_6_2))
(assert (<= x_2_2 o_6_2))
(assert (<= (+ x_2_2 (- (* 584.3285848607472 d_6_2))) 0))
(assert (<= 0 (+ x_2_2 584.3285848607472 (- (* 584.3285848607472 d_6_2)))))
(assert (<= o_6_2 (+ x_2_2 584.3285848607472 (- (* 584.3285848607472 d_6_2)))))
(assert (<= o_6_2 (* 584.3285848607472 d_6_2)))
(assert (<= 0 o_6_3))
(assert (<= x_2_3 o_6_3))
(assert (<= (+ x_2_3 (- (* 1365.273376099699 d_6_3))) 0))
(assert (<= 0 (+ x_2_3 1365.273376099699 (- (* 1365.273376099699 d_6_3)))))
(assert (<= o_6_3 (+ x_2_3 1365.273376099699 (- (* 1365.273376099699 d_6_3)))))
(assert (<= o_6_3 (* 1365.273376099699 d_6_3)))
(assert (<= 0 o_6_4))
(assert (<= x_2_4 o_6_4))
(assert (<= (+ x_2_4 (- (* 930.3145906432237 d_6_4))) 0))
(assert (<= 0 (+ x_2_4 930.3145906432237 (- (* 930.3145906432237 d_6_4)))))
(assert (<= o_6_4 (+ x_2_4 930.3145906432237 (- (* 930.3145906432237 d_6_4)))))
(assert (<= o_6_4 (* 930.3145906432237 d_6_4)))
(assert (<= 0 o_6_5))
(assert (<= x_2_5 o_6_5))
(assert (<= (+ x_2_5 (- (* 641.7970199491484 d_6_5))) 0))
(assert (<= 0 (+ x_2_5 641.7970199491484 (- (* 641.7970199491484 d_6_5)))))
(assert (<= o_6_5 (+ x_2_5 641.7970199491484 (- (* 641.7970199491484 d_6_5)))))
(assert (<= o_6_5 (* 641.7970199491484 d_6_5)))
(assert (= x_3_0 (+ (* 1.0176022 o_6_0) (* 0.57514375 o_6_1) (* 0.2569578 o_6_2) (* -0.6741698 o_6_3) (* 1.7717382 o_6_4) (* -0.22331046 o_6_5) 0.28208148)))
; manually added condition
(assert (<= x_3_0 0))
(check-sat)
(get-model)